40 40
28 6 1
53 59 1
100 31 1
92 8 1
85 14 1
68 4 1
62 66 1
24 24 1
42 33 1
38 81 1
68 90 1
21 17 1
19 51 1
18 12 1
7 58 1
7 77 1
74 90 1
98 55 1
100 58 1
36 24 1
95 7 1
99 96 1
4 13 1
98 15 1
4 89 1
77 59 1
7 79 1
15 39 1
57 60 1
22 99 1
31 44 1
42 17 1
42 74 1
54 4 1
33 30 1
68 6 1
82 21 1
30 98 1
100 93 1
16 94 1
300 300 
300 300 
300 300 
300 300 
300 300 
300 300 
300 300 
300 300 
300 300 
300 300 
300 300 
300 300 
300 300 
300 300 
300 300 
300 300 
300 300 
300 300 
300 300 
300 300 
300 300 
300 300 
300 300 
300 300 
300 300 
300 300 
300 300 
300 300 
300 300 
300 300 
300 300 
300 300 
300 300 
300 300 
300 300 
300 300 
300 300 
300 300 
300 300 
300 300 
